NAME: rbg019b.sop
TYPE: SOP
COMMENT: Stacker crane application (Norbert Ascheuer)
DIMENSION: 21
EDGE_WEIGHT_TYPE: EXPLICIT
EDGE_WEIGHT_FORMAT: FULL_MATRIX 
EDGE_WEIGHT_SECTION
21
    0    0    0    0    0    0    0    0    0    0    0    0    0    0    0    0    0    0    0    0 1000000
   -1    0   14   14   14   25   14   14   26   14    6   14   24   24   16   14   24   14   24   16    0
   -1   15    0   27   27   12   27   27   12   27   24   27   12    2   20   27   12   27   11   20    0
   -1   -1   24    0   24   16   24   24   18   24   23   24   14   14   12   24   12   24   12   12    0
   -1   -1   24   24    0   16   24   24   18   24   23   24   14   14   12   24   12   24   12   12    0
   -1   -1   -1    0    0    0    0    0   29    0   14    0   27   27   23    0   27    0   26   23    0
   -1   -1   -1   25   25   15    0   25   16   25   23   25   12   12   14   25   12   25   11   14    0
   -1   -1   -1   18   18   24   18    0   24   18   12   18   23   23   12   18   23   18   23   12    0
   -1   -1   -1   28   28    0   28   28    0   28   25   28   11   15   23   28   12   28   12   23    0
   -1   -1   -1   -1   -1   15   25   25   16    0   23   25   12   12   14   25   12   25   11   14    0
   -1   -1   -1   -1   -1   -1   -1   -1   -1   -1    0   10   27   27   23   10   26   10   25   23    0
   -1   -1   -1   -1   -1   -1   -1   -1   -1   -1   24    0    3   12   20   27   10   27   11   20    0
   -1   -1   -1   -1   -1   -1   -1   -1   -1   -1   14    0    0   27   23    0   27    0   26   23    0
   -1   -1   -1   -1   -1   -1   -1   -1   -1   -1   24   27    0    0   20   27   10   27   11   20    0
   -1   -1   -1   -1   -1   -1   -1   -1   -1   -1   15   23   21   21    0   23   20   23   18   10    0
   -1   -1   -1   -1   -1   -1   -1   28   11   28   25   28   10   10   21    0   11   28   12   21    0
   -1   -1   -1   -1   -1   -1   -1   -1   -1   -1   -1   -1   -1   27   -1    0    0    0   26   23    0
   -1   -1   -1   -1   -1   -1   -1   -1   -1   -1   -1   -1   -1   -1   -1   -1   10    0   11   20    0
   -1   -1   -1   -1   -1   -1   -1   -1   -1   -1   -1   -1   -1   -1   -1   -1   -1   27    0   18    0
   -1   -1   -1   -1   -1   -1   -1   -1   -1   -1   -1   -1   -1   -1   -1   -1   -1   -1   -1    0    0
   -1   -1   -1   -1   -1   -1   -1   -1   -1   -1   -1   -1   -1   -1   -1   -1   -1   -1   -1   -1    0
